(set-info :status unknown)
(declare-fun C () (_ BitVec 39))
(declare-fun %x () (_ BitVec 12))
(declare-fun |ana_WillNotOverflowSignedAdd(%x, trunc(C))| () (_ BitVec 1))
(declare-fun u_%sx () (_ BitVec 8))
(assert
 (let (($x2478 (= (bvadd ((_ sign_extend 1) %x) ((_ sign_extend 1) ((_ extract 11 0) C))) ((_ sign_extend 1) (bvadd %x ((_ extract 11 0) C))))))
 (let (($x8432 (= |ana_WillNotOverflowSignedAdd(%x, trunc(C))| (_ bv1 1))))
 (and (=> $x8432 $x2478) (= u_%sx (_ bv1 8)) $x8432 (= (bvand C (bvshl (_ bv549755813887 39) (bvsub (_ bv12 39) (_ bv1 39)))) (_ bv0 39)) (not $x2478)))))
(check-sat)
